# Solution for model r5_t18_m8_9 Batch Number: 4
# Finished Task: 10 / 18
# Makespan: 586.0, Total Distance: 219.0, Total Time: 1.4298
# R O S F Batch
0 0 15 0.0 0.0 -1
1 1 17 0.0 0.0 -1
2 2 10 0.0 0.0 -1
3 3 18 0.0 0.0 -1
4 4 21 0.0 0.0 -1
5 -1 -1 -1.0 -1.0 2
6 3 -1 529.0 553.0 1
7 -1 -1 -1.0 -1.0 2
8 3 6 444.0 465.0 0
9 -1 -1 -1.0 -1.0 2
10 2 12 352.0 378.0 0
11 4 22 469.0 489.0 1
12 2 -1 553.0 586.0 1
13 -1 -1 -1.0 -1.0 2
14 -1 -1 -1.0 -1.0 2
15 0 -1 214.0 244.0 0
16 -1 -1 -1.0 -1.0 2
17 1 -1 378.0 411.0 1
18 3 8 340.0 374.0 0
19 -1 -1 -1.0 -1.0 3
20 -1 -1 -1.0 -1.0 2
21 4 11 406.0 444.0 0
22 4 -1 519.0 546.0 2
